; generated by Theta
; https://github.com/ftsrg/theta/

(set-logic HORN)

; declarations
(declare-fun main_init_0 ((_ BitVec 32) (_ FloatingPoint 11 53) (_ BitVec 32) (_ BitVec 32) (_ FloatingPoint 11 53) (_ FloatingPoint 11 53) (_ BitVec 32) (_ BitVec 32)) Bool)
(declare-fun main_final_2 ((_ BitVec 32) (_ FloatingPoint 11 53) (_ BitVec 32) (_ BitVec 32) (_ FloatingPoint 11 53) (_ FloatingPoint 11 53) (_ BitVec 32) (_ BitVec 32)) Bool)
(declare-fun __loc_69_3 ((_ BitVec 32) (_ FloatingPoint 11 53) (_ BitVec 32) (_ BitVec 32) (_ FloatingPoint 11 53) (_ FloatingPoint 11 53) (_ BitVec 32) (_ BitVec 32)) Bool)
(declare-fun __loc_115_4 ((_ BitVec 32) (_ FloatingPoint 11 53) (_ BitVec 32) (_ BitVec 32) (_ FloatingPoint 11 53) (_ FloatingPoint 11 53) (_ BitVec 32) (_ BitVec 32)) Bool)
(declare-fun __loc_124_5 ((_ BitVec 32) (_ FloatingPoint 11 53) (_ BitVec 32) (_ BitVec 32) (_ FloatingPoint 11 53) (_ FloatingPoint 11 53) (_ BitVec 32) (_ BitVec 32)) Bool)
(declare-fun __loc_165_1 ((_ BitVec 32) (_ FloatingPoint 11 53) (_ BitVec 32) (_ BitVec 32) (_ FloatingPoint 11 53) (_ FloatingPoint 11 53) (_ BitVec 32) (_ BitVec 32)) Bool)
(declare-fun main_error_6 ((_ BitVec 32) (_ FloatingPoint 11 53) (_ BitVec 32) (_ BitVec 32) (_ FloatingPoint 11 53) (_ FloatingPoint 11 53) (_ BitVec 32) (_ BitVec 32)) Bool)

; facts, rules, queries
(assert (forall ((|main::main__i| (_ BitVec 32)) (|main::main__x0| (_ FloatingPoint 11 53)) (|main::if0::if1::if2::anonymous3::__VERIFIER_assert__cond| (_ BitVec 32)) (|main_ret| (_ BitVec 32)) (|main::main__x1| (_ FloatingPoint 11 53)) (|main::main__x2| (_ FloatingPoint 11 53)) (|main::if0::main____CPAchecker_TMP_0| (_ BitVec 32)) (|main::if0::if1::if2::anonymous3::__tmp_1| (_ BitVec 32))) (=> true (main_init_0 |main::main__i| |main::main__x0| |main::if0::if1::if2::anonymous3::__VERIFIER_assert__cond| |main_ret| |main::main__x1| |main::main__x2| |main::if0::main____CPAchecker_TMP_0| |main::if0::if1::if2::anonymous3::__tmp_1|))))
(assert (forall ((|main::main__i| (_ BitVec 32)) (|main::main__x0| (_ FloatingPoint 11 53)) (|main::if0::if1::if2::anonymous3::__VERIFIER_assert__cond| (_ BitVec 32)) (|main_ret_new| (_ BitVec 32)) (|main::main__x1| (_ FloatingPoint 11 53)) (|main::main__x2| (_ FloatingPoint 11 53)) (|main::if0::main____CPAchecker_TMP_0| (_ BitVec 32)) (|main::if0::if1::if2::anonymous3::__tmp_1| (_ BitVec 32)) (|main_ret| (_ BitVec 32))) (=> (and (__loc_165_1 |main::main__i| |main::main__x0| |main::if0::if1::if2::anonymous3::__VERIFIER_assert__cond| |main_ret| |main::main__x1| |main::main__x2| |main::if0::main____CPAchecker_TMP_0| |main::if0::if1::if2::anonymous3::__tmp_1|) (and (not (= |main::if0::if1::if2::anonymous3::__VERIFIER_assert__cond| #b00000000000000000000000000000000)) (= |main_ret_new| #b00000000000000000000000000000000))) (main_final_2 |main::main__i| |main::main__x0| |main::if0::if1::if2::anonymous3::__VERIFIER_assert__cond| |main_ret_new| |main::main__x1| |main::main__x2| |main::if0::main____CPAchecker_TMP_0| |main::if0::if1::if2::anonymous3::__tmp_1|))))
(assert (forall ((|main::main__i_new| (_ BitVec 32)) (|main::main__x0_new| (_ FloatingPoint 11 53)) (|main::if0::if1::if2::anonymous3::__VERIFIER_assert__cond| (_ BitVec 32)) (|main_ret| (_ BitVec 32)) (|main::main__x1_new| (_ FloatingPoint 11 53)) (|main::main__x2| (_ FloatingPoint 11 53)) (|main::if0::main____CPAchecker_TMP_0| (_ BitVec 32)) (|main::if0::if1::if2::anonymous3::__tmp_1| (_ BitVec 32)) (|main::main__i| (_ BitVec 32)) (|main::main__x0| (_ FloatingPoint 11 53)) (|main::main__x1| (_ FloatingPoint 11 53))) (=> (and (main_init_0 |main::main__i| |main::main__x0| |main::if0::if1::if2::anonymous3::__VERIFIER_assert__cond| |main_ret| |main::main__x1| |main::main__x2| |main::if0::main____CPAchecker_TMP_0| |main::if0::if1::if2::anonymous3::__tmp_1|) (and (and (= |main::main__x0_new| (fp #b0  #b10000000001 #b0110000000000000000000000000000000000000000000000000)) (= |main::main__x1_new| (fp #b0  #b10000000001 #b0110001011101000101110100010111010001011101000110000))) (= |main::main__i_new| #b00000000000000000000000000000000))) (__loc_69_3 |main::main__i_new| |main::main__x0_new| |main::if0::if1::if2::anonymous3::__VERIFIER_assert__cond| |main_ret| |main::main__x1_new| |main::main__x2| |main::if0::main____CPAchecker_TMP_0| |main::if0::if1::if2::anonymous3::__tmp_1|))))
(assert (forall ((|main::main__i_new| (_ BitVec 32)) (|main::main__x0_new| (_ FloatingPoint 11 53)) (|main::if0::if1::if2::anonymous3::__VERIFIER_assert__cond| (_ BitVec 32)) (|main_ret| (_ BitVec 32)) (|main::main__x1_new| (_ FloatingPoint 11 53)) (|main::main__x2_new| (_ FloatingPoint 11 53)) (|main::if0::main____CPAchecker_TMP_0| (_ BitVec 32)) (|main::if0::if1::if2::anonymous3::__tmp_1| (_ BitVec 32)) (|main::main__i| (_ BitVec 32)) (|main::main__x0| (_ FloatingPoint 11 53)) (|main::main__x1| (_ FloatingPoint 11 53)) (|main::main__x2| (_ FloatingPoint 11 53))) (=> (and (__loc_69_3 |main::main__i| |main::main__x0| |main::if0::if1::if2::anonymous3::__VERIFIER_assert__cond| |main_ret| |main::main__x1| |main::main__x2| |main::if0::main____CPAchecker_TMP_0| |main::if0::if1::if2::anonymous3::__tmp_1|) (and (and (and (and (bvslt |main::main__i| #b00000000000000000000000001100100) (= |main::main__x2_new| (fp.add RNE (fp.neg (fp.div RNE (fp.add RNE (fp #b0  #b10000001001 #b0001101010000000000000000000000000000000000000000000) (fp.neg (fp.div RNE (fp #b0  #b10000001010 #b0111011100000000000000000000000000000000000000000000) |main::main__x0|))) |main::main__x1|)) (fp #b0  #b10000000101 #b1011110000000000000000000000000000000000000000000000)))) (= |main::main__x0_new| |main::main__x1|)) (= |main::main__x1_new| |main::main__x2_new|)) (= |main::main__i_new| (bvadd |main::main__i| #b00000000000000000000000000000001)))) (__loc_69_3 |main::main__i_new| |main::main__x0_new| |main::if0::if1::if2::anonymous3::__VERIFIER_assert__cond| |main_ret| |main::main__x1_new| |main::main__x2_new| |main::if0::main____CPAchecker_TMP_0| |main::if0::if1::if2::anonymous3::__tmp_1|))))
(assert (forall ((|main::main__i| (_ BitVec 32)) (|main::main__x0| (_ FloatingPoint 11 53)) (|main::if0::if1::if2::anonymous3::__VERIFIER_assert__cond| (_ BitVec 32)) (|main_ret| (_ BitVec 32)) (|main::main__x1| (_ FloatingPoint 11 53)) (|main::main__x2| (_ FloatingPoint 11 53)) (|main::if0::main____CPAchecker_TMP_0| (_ BitVec 32)) (|main::if0::if1::if2::anonymous3::__tmp_1| (_ BitVec 32))) (=> (and (__loc_69_3 |main::main__i| |main::main__x0| |main::if0::if1::if2::anonymous3::__VERIFIER_assert__cond| |main_ret| |main::main__x1| |main::main__x2| |main::if0::main____CPAchecker_TMP_0| |main::if0::if1::if2::anonymous3::__tmp_1|) (not (bvslt |main::main__i| #b00000000000000000000000001100100))) (__loc_115_4 |main::main__i| |main::main__x0| |main::if0::if1::if2::anonymous3::__VERIFIER_assert__cond| |main_ret| |main::main__x1| |main::main__x2| |main::if0::main____CPAchecker_TMP_0| |main::if0::if1::if2::anonymous3::__tmp_1|))))
(assert (forall ((|main::main__i| (_ BitVec 32)) (|main::main__x0| (_ FloatingPoint 11 53)) (|main::if0::if1::if2::anonymous3::__VERIFIER_assert__cond| (_ BitVec 32)) (|main_ret| (_ BitVec 32)) (|main::main__x1| (_ FloatingPoint 11 53)) (|main::main__x2| (_ FloatingPoint 11 53)) (|main::if0::main____CPAchecker_TMP_0| (_ BitVec 32)) (|main::if0::if1::if2::anonymous3::__tmp_1| (_ BitVec 32))) (=> (and (__loc_115_4 |main::main__i| |main::main__x0| |main::if0::if1::if2::anonymous3::__VERIFIER_assert__cond| |main_ret| |main::main__x1| |main::main__x2| |main::if0::main____CPAchecker_TMP_0| |main::if0::if1::if2::anonymous3::__tmp_1|) (fp.geq |main::main__x0| (fp #b0  #b10000000101 #b1000110000000000000000000000000000000000000000000000))) (__loc_124_5 |main::main__i| |main::main__x0| |main::if0::if1::if2::anonymous3::__VERIFIER_assert__cond| |main_ret| |main::main__x1| |main::main__x2| |main::if0::main____CPAchecker_TMP_0| |main::if0::if1::if2::anonymous3::__tmp_1|))))
(assert (forall ((|main::main__i| (_ BitVec 32)) (|main::main__x0| (_ FloatingPoint 11 53)) (|main::if0::if1::if2::anonymous3::__VERIFIER_assert__cond_new| (_ BitVec 32)) (|main_ret| (_ BitVec 32)) (|main::main__x1| (_ FloatingPoint 11 53)) (|main::main__x2| (_ FloatingPoint 11 53)) (|main::if0::main____CPAchecker_TMP_0_new| (_ BitVec 32)) (|main::if0::if1::if2::anonymous3::__tmp_1_new| (_ BitVec 32)) (|main::if0::if1::if2::anonymous3::__VERIFIER_assert__cond| (_ BitVec 32)) (|main::if0::main____CPAchecker_TMP_0| (_ BitVec 32)) (|main::if0::if1::if2::anonymous3::__tmp_1| (_ BitVec 32))) (=> (and (__loc_124_5 |main::main__i| |main::main__x0| |main::if0::if1::if2::anonymous3::__VERIFIER_assert__cond| |main_ret| |main::main__x1| |main::main__x2| |main::if0::main____CPAchecker_TMP_0| |main::if0::if1::if2::anonymous3::__tmp_1|) (and (and (and (fp.leq |main::main__x0| (fp #b0  #b10000000101 #b1001010000000000000000000000000000000000000000000000)) (= |main::if0::main____CPAchecker_TMP_0_new| #b00000000000000000000000000000001)) (= |main::if0::if1::if2::anonymous3::__tmp_1_new| |main::if0::main____CPAchecker_TMP_0_new|)) (= |main::if0::if1::if2::anonymous3::__VERIFIER_assert__cond_new| |main::if0::if1::if2::anonymous3::__tmp_1_new|))) (__loc_165_1 |main::main__i| |main::main__x0| |main::if0::if1::if2::anonymous3::__VERIFIER_assert__cond_new| |main_ret| |main::main__x1| |main::main__x2| |main::if0::main____CPAchecker_TMP_0_new| |main::if0::if1::if2::anonymous3::__tmp_1_new|))))
(assert (forall ((|main::main__i| (_ BitVec 32)) (|main::main__x0| (_ FloatingPoint 11 53)) (|main::if0::if1::if2::anonymous3::__VERIFIER_assert__cond_new| (_ BitVec 32)) (|main_ret| (_ BitVec 32)) (|main::main__x1| (_ FloatingPoint 11 53)) (|main::main__x2| (_ FloatingPoint 11 53)) (|main::if0::main____CPAchecker_TMP_0_new| (_ BitVec 32)) (|main::if0::if1::if2::anonymous3::__tmp_1_new| (_ BitVec 32)) (|main::if0::if1::if2::anonymous3::__VERIFIER_assert__cond| (_ BitVec 32)) (|main::if0::main____CPAchecker_TMP_0| (_ BitVec 32)) (|main::if0::if1::if2::anonymous3::__tmp_1| (_ BitVec 32))) (=> (and (__loc_124_5 |main::main__i| |main::main__x0| |main::if0::if1::if2::anonymous3::__VERIFIER_assert__cond| |main_ret| |main::main__x1| |main::main__x2| |main::if0::main____CPAchecker_TMP_0| |main::if0::if1::if2::anonymous3::__tmp_1|) (and (and (and (not (fp.leq |main::main__x0| (fp #b0  #b10000000101 #b1001010000000000000000000000000000000000000000000000))) (= |main::if0::main____CPAchecker_TMP_0_new| #b00000000000000000000000000000000)) (= |main::if0::if1::if2::anonymous3::__tmp_1_new| |main::if0::main____CPAchecker_TMP_0_new|)) (= |main::if0::if1::if2::anonymous3::__VERIFIER_assert__cond_new| |main::if0::if1::if2::anonymous3::__tmp_1_new|))) (__loc_165_1 |main::main__i| |main::main__x0| |main::if0::if1::if2::anonymous3::__VERIFIER_assert__cond_new| |main_ret| |main::main__x1| |main::main__x2| |main::if0::main____CPAchecker_TMP_0_new| |main::if0::if1::if2::anonymous3::__tmp_1_new|))))
(assert (forall ((|main::main__i| (_ BitVec 32)) (|main::main__x0| (_ FloatingPoint 11 53)) (|main::if0::if1::if2::anonymous3::__VERIFIER_assert__cond_new| (_ BitVec 32)) (|main_ret| (_ BitVec 32)) (|main::main__x1| (_ FloatingPoint 11 53)) (|main::main__x2| (_ FloatingPoint 11 53)) (|main::if0::main____CPAchecker_TMP_0_new| (_ BitVec 32)) (|main::if0::if1::if2::anonymous3::__tmp_1_new| (_ BitVec 32)) (|main::if0::if1::if2::anonymous3::__VERIFIER_assert__cond| (_ BitVec 32)) (|main::if0::main____CPAchecker_TMP_0| (_ BitVec 32)) (|main::if0::if1::if2::anonymous3::__tmp_1| (_ BitVec 32))) (=> (and (__loc_115_4 |main::main__i| |main::main__x0| |main::if0::if1::if2::anonymous3::__VERIFIER_assert__cond| |main_ret| |main::main__x1| |main::main__x2| |main::if0::main____CPAchecker_TMP_0| |main::if0::if1::if2::anonymous3::__tmp_1|) (and (and (and (not (fp.geq |main::main__x0| (fp #b0  #b10000000101 #b1000110000000000000000000000000000000000000000000000))) (= |main::if0::main____CPAchecker_TMP_0_new| #b00000000000000000000000000000000)) (= |main::if0::if1::if2::anonymous3::__tmp_1_new| |main::if0::main____CPAchecker_TMP_0_new|)) (= |main::if0::if1::if2::anonymous3::__VERIFIER_assert__cond_new| |main::if0::if1::if2::anonymous3::__tmp_1_new|))) (__loc_165_1 |main::main__i| |main::main__x0| |main::if0::if1::if2::anonymous3::__VERIFIER_assert__cond_new| |main_ret| |main::main__x1| |main::main__x2| |main::if0::main____CPAchecker_TMP_0_new| |main::if0::if1::if2::anonymous3::__tmp_1_new|))))
(assert (forall ((|main::main__i| (_ BitVec 32)) (|main::main__x0| (_ FloatingPoint 11 53)) (|main::if0::if1::if2::anonymous3::__VERIFIER_assert__cond| (_ BitVec 32)) (|main_ret| (_ BitVec 32)) (|main::main__x1| (_ FloatingPoint 11 53)) (|main::main__x2| (_ FloatingPoint 11 53)) (|main::if0::main____CPAchecker_TMP_0| (_ BitVec 32)) (|main::if0::if1::if2::anonymous3::__tmp_1| (_ BitVec 32))) (=> (and (__loc_165_1 |main::main__i| |main::main__x0| |main::if0::if1::if2::anonymous3::__VERIFIER_assert__cond| |main_ret| |main::main__x1| |main::main__x2| |main::if0::main____CPAchecker_TMP_0| |main::if0::if1::if2::anonymous3::__tmp_1|) (= |main::if0::if1::if2::anonymous3::__VERIFIER_assert__cond| #b00000000000000000000000000000000)) (main_error_6 |main::main__i| |main::main__x0| |main::if0::if1::if2::anonymous3::__VERIFIER_assert__cond| |main_ret| |main::main__x1| |main::main__x2| |main::if0::main____CPAchecker_TMP_0| |main::if0::if1::if2::anonymous3::__tmp_1|))))
(assert (forall ((|main::main__i| (_ BitVec 32)) (|main::main__x0| (_ FloatingPoint 11 53)) (|main::if0::if1::if2::anonymous3::__VERIFIER_assert__cond| (_ BitVec 32)) (|main_ret| (_ BitVec 32)) (|main::main__x1| (_ FloatingPoint 11 53)) (|main::main__x2| (_ FloatingPoint 11 53)) (|main::if0::main____CPAchecker_TMP_0| (_ BitVec 32)) (|main::if0::if1::if2::anonymous3::__tmp_1| (_ BitVec 32))) (=> (main_error_6 |main::main__i| |main::main__x0| |main::if0::if1::if2::anonymous3::__VERIFIER_assert__cond| |main_ret| |main::main__x1| |main::main__x2| |main::if0::main____CPAchecker_TMP_0| |main::if0::if1::if2::anonymous3::__tmp_1|) false)))

(check-sat)
(exit)